benchmark/results/graph__10-1000-0.10-03_7/graph__10-1000-0.10-03_7_QuintonOs_Benders_primal_sub.lp
\ This file has been generated by DOcplex
\ ENCODING=ISO-8859-1
\Problem name: Quinton Bounded Benders_primal_sub

Maximize
 obj: tau
Subject To
 c1: tau <= 0.001246882793
 c2: y_a0_proc_0 + y_a0_proc_1 + y_a0_proc_2 - tau = 0
 c3: y_a0_proc_0 <= 0
 c4: y_a0_proc_1 <= 0
 c5: y_a0_proc_2 <= 1
 c6: tau <= 0.001092896175
 c7: y_a1_proc_0 + y_a1_proc_2 - tau = 0
 c8: y_a1_proc_0 <= 0
 c9: y_a1_proc_2 <= 1
 c10: tau <= 0.001017293998
 c11: y_a2_proc_1 + y_a2_proc_2 - tau = 0
 c12: y_a2_proc_1 <= 0
 c13: y_a2_proc_2 <= 1
 c14: tau <= 0.001200480192
 c15: y_a3_proc_0 + y_a3_proc_1 + y_a3_proc_2 - tau = 0
 c16: y_a3_proc_0 <= 0
 c17: y_a3_proc_1 <= 1
 c18: y_a3_proc_2 <= 0
 c19: tau <= 0.001390820584
 c20: y_a4_proc_0 + y_a4_proc_1 + y_a4_proc_2 - tau = 0
 c21: y_a4_proc_0 <= 1
 c22: y_a4_proc_1 <= 0
 c23: y_a4_proc_2 <= 0
 c24: tau <= 0.000938967136
 c25: y_a5_proc_0 + y_a5_proc_1 - tau = 0
 c26: y_a5_proc_0 <= 0
 c27: y_a5_proc_1 <= 1
 c28: tau <= 0.001071811361
 c29: y_a6_proc_0 + y_a6_proc_1 - tau = 0
 c30: y_a6_proc_0 <= 1
 c31: y_a6_proc_1 <= 0
 c32: tau <= 0.001727115717
 c33: y_a7_proc_1 + y_a7_proc_2 - tau = 0
 c34: y_a7_proc_1 <= 1
 c35: y_a7_proc_2 <= 0
 c36: tau <= 0.001396648045
 c37: y_a8_proc_0 + y_a8_proc_1 + y_a8_proc_2 - tau = 0
 c38: y_a8_proc_0 <= 0
 c39: y_a8_proc_1 <= 0
 c40: y_a8_proc_2 <= 1
 c41: tau <= 0.000836120401
 c42: y_a9_proc_0 + y_a9_proc_1 + y_a9_proc_2 - tau = 0
 c43: y_a9_proc_0 <= 1
 c44: y_a9_proc_1 <= 0
 c45: y_a9_proc_2 <= 0
 c46: u_a0 - u_a1 - 917 y_a1_proc_0 - 915 y_a1_proc_2 >= 0
 c47: u_a2 - u_a0 - 1216 y_a0_proc_0 - 1059 y_a0_proc_1 - 802 y_a0_proc_2 >= 0
 c48: u_a3 - u_a2 - 1064 y_a2_proc_1 - 983 y_a2_proc_2 >= 0
 c49: u_a4 - u_a2 - 1064 y_a2_proc_1 - 983 y_a2_proc_2 >= 0
 c50: u_a1 - u_a5 - 1128 y_a5_proc_0 - 1065 y_a5_proc_1 >= -1
 c51: u_a6 - u_a4 - 719 y_a4_proc_0 - 1052 y_a4_proc_1 - 940 y_a4_proc_2 >= 0
 c52: u_a7 - u_a4 - 719 y_a4_proc_0 - 1052 y_a4_proc_1 - 940 y_a4_proc_2 >= 0
 c53: u_a8 - u_a3 - 1157 y_a3_proc_0 - 833 y_a3_proc_1 - 1277 y_a3_proc_2 >= 0
 c54: u_a3 - u_a9 - 1196 y_a9_proc_0 - 707 y_a9_proc_1 - 1086 y_a9_proc_2 >= -1
 c55: u_a0 - u_a9 - 1196 y_a9_proc_0 - 707 y_a9_proc_1 - 1086 y_a9_proc_2 >= -1
 c56: u_a5 - u_a6 - 933 y_a6_proc_0 - 784 y_a6_proc_1 >= 0
 c57: u_a5 - u_a7 - 579 y_a7_proc_1 - 980 y_a7_proc_2 >= 0
 c58: u_a7 - u_a8 - 964 y_a8_proc_0 - 801 y_a8_proc_1 - 716 y_a8_proc_2 >= 0
 c59: u_a9 - u_a6 - 933 y_a6_proc_0 - 784 y_a6_proc_1 >= 0
 c60: u_a1 - u_a8 - 964 y_a8_proc_0 - 801 y_a8_proc_1 - 716 y_a8_proc_2 >= -1
 c61: u_a9 - u_a3 - 1157 y_a3_proc_0 - 833 y_a3_proc_1 - 1277 y_a3_proc_2 >= 0
 c62: u_a9 - u_a7 - 579 y_a7_proc_1 - 980 y_a7_proc_2 >= 0
 c63: u_a5 - u_a8 - 964 y_a8_proc_0 - 801 y_a8_proc_1 - 716 y_a8_proc_2 >= 0
 c64: u_a1 - u_a0 - 802 y_a0_proc_2 >= -1
 c65: u_a1 - u_a0 - 1216 y_a0_proc_0 >= -2555
 c66: u_a0 - u_a1 - 915 y_a1_proc_2 >= 0
 c67: u_a0 - u_a1 - 917 y_a1_proc_0 >= -2554
 c68: u_a2 - u_a0 - 802 y_a0_proc_2 >= 0
 c69: u_a2 - u_a0 - 1059 y_a0_proc_1 >= -2554
 c70: u_a0 - u_a2 - 983 y_a2_proc_2 >= -1
 c71: u_a0 - u_a2 - 1064 y_a2_proc_1 >= -2555
 c72: u_a3 - u_a0 - 802 y_a0_proc_2 >= -1290
 c73: u_a3 - u_a0 - 1216 y_a0_proc_0 >= -2567
 c74: u_a3 - u_a0 - 1059 y_a0_proc_1 >= -1290
 c75: u_a0 - u_a3 - 1277 y_a3_proc_2 >= -1265
 c76: u_a0 - u_a3 - 1157 y_a3_proc_0 >= -2542
 c77: u_a0 - u_a3 - 833 y_a3_proc_1 >= -1265
 c78: u_a4 - u_a0 - 802 y_a0_proc_2 >= -1290
 c79: u_a4 - u_a0 - 1216 y_a0_proc_0 >= -1290
 c80: u_a4 - u_a0 - 1059 y_a0_proc_1 >= -2567
 c81: u_a0 - u_a4 - 940 y_a4_proc_2 >= -1265
 c82: u_a0 - u_a4 - 719 y_a4_proc_0 >= -1265
 c83: u_a0 - u_a4 - 1052 y_a4_proc_1 >= -2542
 c84: u_a5 - u_a0 - 1216 y_a0_proc_0 >= -2567
 c85: u_a5 - u_a0 - 1059 y_a0_proc_1 >= -1290
 c86: u_a0 - u_a5 - 1128 y_a5_proc_0 >= -2542
 c87: u_a0 - u_a5 - 1065 y_a5_proc_1 >= -1265
 c88: u_a6 - u_a0 - 1216 y_a0_proc_0 >= -1290
 c89: u_a6 - u_a0 - 1059 y_a0_proc_1 >= -2567
 c90: u_a0 - u_a6 - 933 y_a6_proc_0 >= -1265
 c91: u_a0 - u_a6 - 784 y_a6_proc_1 >= -2542
 c92: u_a7 - u_a0 - 802 y_a0_proc_2 >= -1290
 c93: u_a7 - u_a0 - 1059 y_a0_proc_1 >= -1290
 c94: u_a0 - u_a7 - 980 y_a7_proc_2 >= -1265
 c95: u_a0 - u_a7 - 579 y_a7_proc_1 >= -1265
 c96: u_a8 - u_a0 - 802 y_a0_proc_2 >= 0
 c97: u_a8 - u_a0 - 1216 y_a0_proc_0 >= -2554
 c98: u_a8 - u_a0 - 1059 y_a0_proc_1 >= -2554
 c99: u_a0 - u_a8 - 716 y_a8_proc_2 >= -1
 c100: u_a0 - u_a8 - 964 y_a8_proc_0 >= -2555
 c101: u_a0 - u_a8 - 801 y_a8_proc_1 >= -2555
 c102: u_a9 - u_a0 - 802 y_a0_proc_2 >= -1290
 c103: u_a9 - u_a0 - 1216 y_a0_proc_0 >= -1290
 c104: u_a9 - u_a0 - 1059 y_a0_proc_1 >= -2567
 c105: u_a0 - u_a9 - 1086 y_a9_proc_2 >= -1265
 c106: u_a0 - u_a9 - 1196 y_a9_proc_0 >= -1265
 c107: u_a0 - u_a9 - 707 y_a9_proc_1 >= -2542
 c108: u_a2 - u_a1 - 915 y_a1_proc_2 >= 0
 c109: u_a1 - u_a2 - 983 y_a2_proc_2 >= -1
 c110: u_a3 - u_a1 - 915 y_a1_proc_2 >= -1290
 c111: u_a3 - u_a1 - 917 y_a1_proc_0 >= -2567
 c112: u_a1 - u_a3 - 1277 y_a3_proc_2 >= -1265
 c113: u_a1 - u_a3 - 1157 y_a3_proc_0 >= -2542
 c114: u_a4 - u_a1 - 915 y_a1_proc_2 >= -1290
 c115: u_a4 - u_a1 - 917 y_a1_proc_0 >= -1290
 c116: u_a1 - u_a4 - 940 y_a4_proc_2 >= -1265
 c117: u_a1 - u_a4 - 719 y_a4_proc_0 >= -1265
 c118: u_a5 - u_a1 - 917 y_a1_proc_0 >= -2567
 c119: u_a1 - u_a5 - 1128 y_a5_proc_0 >= -2542
 c120: u_a6 - u_a1 - 917 y_a1_proc_0 >= -1290
 c121: u_a1 - u_a6 - 933 y_a6_proc_0 >= -1265
 c122: u_a7 - u_a1 - 915 y_a1_proc_2 >= -1290
 c123: u_a1 - u_a7 - 980 y_a7_proc_2 >= -1265
 c124: u_a8 - u_a1 - 915 y_a1_proc_2 >= 0
 c125: u_a8 - u_a1 - 917 y_a1_proc_0 >= -2554
 c126: u_a1 - u_a8 - 716 y_a8_proc_2 >= -1
 c127: u_a1 - u_a8 - 964 y_a8_proc_0 >= -2555
 c128: u_a9 - u_a1 - 915 y_a1_proc_2 >= -1290
 c129: u_a9 - u_a1 - 917 y_a1_proc_0 >= -1290
 c130: u_a1 - u_a9 - 1086 y_a9_proc_2 >= -1265
 c131: u_a1 - u_a9 - 1196 y_a9_proc_0 >= -1265
 c132: u_a3 - u_a2 - 983 y_a2_proc_2 >= -1290
 c133: u_a3 - u_a2 - 1064 y_a2_proc_1 >= -1290
 c134: u_a2 - u_a3 - 1277 y_a3_proc_2 >= -1265
 c135: u_a2 - u_a3 - 833 y_a3_proc_1 >= -1265
 c136: u_a4 - u_a2 - 983 y_a2_proc_2 >= -1290
 c137: u_a4 - u_a2 - 1064 y_a2_proc_1 >= -2567
 c138: u_a2 - u_a4 - 940 y_a4_proc_2 >= -1265
 c139: u_a2 - u_a4 - 1052 y_a4_proc_1 >= -2542
 c140: u_a5 - u_a2 - 1064 y_a2_proc_1 >= -1290
 c141: u_a2 - u_a5 - 1065 y_a5_proc_1 >= -1265
 c142: u_a6 - u_a2 - 1064 y_a2_proc_1 >= -2567
 c143: u_a2 - u_a6 - 784 y_a6_proc_1 >= -2542
 c144: u_a7 - u_a2 - 983 y_a2_proc_2 >= -1290
 c145: u_a7 - u_a2 - 1064 y_a2_proc_1 >= -1290
 c146: u_a2 - u_a7 - 980 y_a7_proc_2 >= -1265
 c147: u_a2 - u_a7 - 579 y_a7_proc_1 >= -1265
 c148: u_a8 - u_a2 - 983 y_a2_proc_2 >= 0
 c149: u_a8 - u_a2 - 1064 y_a2_proc_1 >= -2554
 c150: u_a2 - u_a8 - 716 y_a8_proc_2 >= -1
 c151: u_a2 - u_a8 - 801 y_a8_proc_1 >= -2555
 c152: u_a9 - u_a2 - 983 y_a2_proc_2 >= -1290
 c153: u_a9 - u_a2 - 1064 y_a2_proc_1 >= -2567
 c154: u_a2 - u_a9 - 1086 y_a9_proc_2 >= -1265
 c155: u_a2 - u_a9 - 707 y_a9_proc_1 >= -2542
 c156: u_a4 - u_a3 - 1277 y_a3_proc_2 >= -2567
 c157: u_a4 - u_a3 - 1157 y_a3_proc_0 >= -1290
 c158: u_a4 - u_a3 - 833 y_a3_proc_1 >= -1290
 c159: u_a3 - u_a4 - 940 y_a4_proc_2 >= -2542
 c160: u_a3 - u_a4 - 719 y_a4_proc_0 >= -1265
 c161: u_a3 - u_a4 - 1052 y_a4_proc_1 >= -1265
 c162: u_a5 - u_a3 - 1157 y_a3_proc_0 >= -2554
 c163: u_a5 - u_a3 - 833 y_a3_proc_1 >= 0
 c164: u_a3 - u_a5 - 1128 y_a5_proc_0 >= -2555
 c165: u_a3 - u_a5 - 1065 y_a5_proc_1 >= -1
 c166: u_a6 - u_a3 - 1157 y_a3_proc_0 >= -1290
 c167: u_a6 - u_a3 - 833 y_a3_proc_1 >= -1290
 c168: u_a3 - u_a6 - 933 y_a6_proc_0 >= -1265
 c169: u_a3 - u_a6 - 784 y_a6_proc_1 >= -1265
 c170: u_a7 - u_a3 - 1277 y_a3_proc_2 >= -2554
 c171: u_a7 - u_a3 - 833 y_a3_proc_1 >= 0
 c172: u_a3 - u_a7 - 980 y_a7_proc_2 >= -2555
 c173: u_a3 - u_a7 - 579 y_a7_proc_1 >= -1
 c174: u_a8 - u_a3 - 1277 y_a3_proc_2 >= -1290
 c175: u_a8 - u_a3 - 1157 y_a3_proc_0 >= -2567
 c176: u_a8 - u_a3 - 833 y_a3_proc_1 >= -1290
 c177: u_a3 - u_a8 - 716 y_a8_proc_2 >= -1265
 c178: u_a3 - u_a8 - 964 y_a8_proc_0 >= -2542
 c179: u_a3 - u_a8 - 801 y_a8_proc_1 >= -1265
 c180: u_a9 - u_a3 - 1277 y_a3_proc_2 >= -2567
 c181: u_a9 - u_a3 - 1157 y_a3_proc_0 >= -1290
 c182: u_a9 - u_a3 - 833 y_a3_proc_1 >= -1290
 c183: u_a3 - u_a9 - 1086 y_a9_proc_2 >= -2542
 c184: u_a3 - u_a9 - 1196 y_a9_proc_0 >= -1265
 c185: u_a3 - u_a9 - 707 y_a9_proc_1 >= -1265
 c186: u_a5 - u_a4 - 719 y_a4_proc_0 >= -1290
 c187: u_a5 - u_a4 - 1052 y_a4_proc_1 >= -1290
 c188: u_a4 - u_a5 - 1128 y_a5_proc_0 >= -1265
 c189: u_a4 - u_a5 - 1065 y_a5_proc_1 >= -1265
 c190: u_a6 - u_a4 - 719 y_a4_proc_0 >= 0
 c191: u_a6 - u_a4 - 1052 y_a4_proc_1 >= -2554
 c192: u_a4 - u_a6 - 933 y_a6_proc_0 >= -1
 c193: u_a4 - u_a6 - 784 y_a6_proc_1 >= -2555
 c194: u_a7 - u_a4 - 940 y_a4_proc_2 >= -2567
 c195: u_a7 - u_a4 - 1052 y_a4_proc_1 >= -1290
 c196: u_a4 - u_a7 - 980 y_a7_proc_2 >= -2542
 c197: u_a4 - u_a7 - 579 y_a7_proc_1 >= -1265
 c198: u_a8 - u_a4 - 940 y_a4_proc_2 >= -1290
 c199: u_a8 - u_a4 - 719 y_a4_proc_0 >= -1290
 c200: u_a8 - u_a4 - 1052 y_a4_proc_1 >= -2567
 c201: u_a4 - u_a8 - 716 y_a8_proc_2 >= -1265
 c202: u_a4 - u_a8 - 964 y_a8_proc_0 >= -1265
 c203: u_a4 - u_a8 - 801 y_a8_proc_1 >= -2542
 c204: u_a9 - u_a4 - 940 y_a4_proc_2 >= -2554
 c205: u_a9 - u_a4 - 719 y_a4_proc_0 >= 0
 c206: u_a9 - u_a4 - 1052 y_a4_proc_1 >= -2554
 c207: u_a4 - u_a9 - 1086 y_a9_proc_2 >= -2555
 c208: u_a4 - u_a9 - 1196 y_a9_proc_0 >= -1
 c209: u_a4 - u_a9 - 707 y_a9_proc_1 >= -2555
 c210: u_a6 - u_a5 - 1128 y_a5_proc_0 >= -1290
 c211: u_a6 - u_a5 - 1065 y_a5_proc_1 >= -1290
 c212: u_a5 - u_a6 - 933 y_a6_proc_0 >= -1265
 c213: u_a5 - u_a6 - 784 y_a6_proc_1 >= -1265
 c214: u_a7 - u_a5 - 1065 y_a5_proc_1 >= -1
 c215: u_a5 - u_a7 - 579 y_a7_proc_1 >= 0
 c216: u_a8 - u_a5 - 1128 y_a5_proc_0 >= -2567
 c217: u_a8 - u_a5 - 1065 y_a5_proc_1 >= -1290
 c218: u_a5 - u_a8 - 964 y_a8_proc_0 >= -2542
 c219: u_a5 - u_a8 - 801 y_a8_proc_1 >= -1265
 c220: u_a9 - u_a5 - 1128 y_a5_proc_0 >= -1290
 c221: u_a9 - u_a5 - 1065 y_a5_proc_1 >= -1290
 c222: u_a5 - u_a9 - 1196 y_a9_proc_0 >= -1265
 c223: u_a5 - u_a9 - 707 y_a9_proc_1 >= -1265
 c224: u_a7 - u_a6 - 784 y_a6_proc_1 >= -1290
 c225: u_a6 - u_a7 - 579 y_a7_proc_1 >= -1265
 c226: u_a8 - u_a6 - 933 y_a6_proc_0 >= -1265
 c227: u_a8 - u_a6 - 784 y_a6_proc_1 >= -2542
 c228: u_a6 - u_a8 - 964 y_a8_proc_0 >= -1290
 c229: u_a6 - u_a8 - 801 y_a8_proc_1 >= -2567
 c230: u_a9 - u_a6 - 933 y_a6_proc_0 >= 0
 c231: u_a9 - u_a6 - 784 y_a6_proc_1 >= -2554
 c232: u_a6 - u_a9 - 1196 y_a9_proc_0 >= -1
 c233: u_a6 - u_a9 - 707 y_a9_proc_1 >= -2555
 c234: u_a8 - u_a7 - 980 y_a7_proc_2 >= -1290
 c235: u_a8 - u_a7 - 579 y_a7_proc_1 >= -1290
 c236: u_a7 - u_a8 - 716 y_a8_proc_2 >= -1265
 c237: u_a7 - u_a8 - 801 y_a8_proc_1 >= -1265
 c238: u_a9 - u_a7 - 980 y_a7_proc_2 >= -2567
 c239: u_a9 - u_a7 - 579 y_a7_proc_1 >= -1290
 c240: u_a7 - u_a9 - 1086 y_a9_proc_2 >= -2542
 c241: u_a7 - u_a9 - 707 y_a9_proc_1 >= -1265
 c242: u_a9 - u_a8 - 716 y_a8_proc_2 >= -1290
 c243: u_a9 - u_a8 - 964 y_a8_proc_0 >= -1290
 c244: u_a9 - u_a8 - 801 y_a8_proc_1 >= -2567
 c245: u_a8 - u_a9 - 1086 y_a9_proc_2 >= -1265
 c246: u_a8 - u_a9 - 1196 y_a9_proc_0 >= -1265
 c247: u_a8 - u_a9 - 707 y_a9_proc_1 >= -2542

Bounds
End
