benchmark/results/graph__10-1000-0.10-03_7/graph__10-1000-0.10-03_7_QuintonOs_Benders_primal_sub.txt
solution for: Quinton Bounded Benders_primal_sub
objective: 0.000169693
status: OPTIMAL_SOLUTION(2)
u_a0=0.155
u_a2=0.291
u_a3=0.458
u_a4=0.458
u_a5=0.819
u_a6=0.580
u_a7=0.721
u_a8=0.600
u_a9=0.819
tau=0.000
y_a0_proc_2=0.000
y_a1_proc_2=0.000
y_a2_proc_2=0.000
y_a3_proc_1=0.000
y_a4_proc_0=0.000
y_a5_proc_1=0.000
y_a6_proc_0=0.000
y_a7_proc_1=0.000
y_a8_proc_2=0.000
y_a9_proc_0=0.000
